\* Pokemon *\
Minimize
total_fraquezas: 3 Aço + 3 Dragão + Elétrico + 2 Fada + 2 Fantasma + 3 Fogo
 + 4 Gelo + 3 Inseto + 3 Lutador + Normal + 5 Pedra + 5 Planta + 3 Psíquico
 + 3 Sombrio + 3 Terra + 2 Veneno + 3 Voador + 2 Água
Subject To
_C1: Aço + Dragão + Elétrico + Fada + Fantasma + Fogo + Gelo + Inseto
 + Lutador + Normal + Pedra + Planta + Psíquico + Sombrio + Terra + Veneno
 + Voador + Água = 6
Binaries
Aço
Dragão
Elétrico
Fada
Fantasma
Fogo
Gelo
Inseto
Lutador
Normal
Pedra
Planta
Psíquico
Sombrio
Terra
Veneno
Voador
Água
End
